p td 50 75
10 37
10 0
10 25
37 7
37 2
12 27
12 44
12 24
27 23
27 13
1 48
1 29
1 44
48 21
48 42
8 9
8 14
8 45
9 24
9 30
35 41
35 39
35 46
41 18
41 26
0 3
0 17
5 32
5 36
5 4
32 46
32 18
4 22
4 25
22 28
22 49
23 26
23 16
26 33
20 38
20 39
20 42
38 25
38 6
29 19
29 18
3 30
3 19
6 14
6 34
14 19
47 49
47 30
47 43
49 7
40 46
40 33
40 24
16 17
16 15
17 15
45 21
45 31
11 43
11 42
11 15
43 2
36 13
36 34
13 28
44 39
33 34
21 31
31 7
28 2
